c 1 2 3 4 5 6 62 7 63 8 67 39 17 40 18 41 19 42 20 43 21 44 22 45 23 46 24 9 10 11 12 13 14 15 16 25 26 27 28 29 30 31 32 33 34 35 36 37 38 47 48 49 50 51 52 53 54 55 56 57 58 59 60 61 64 65 66 68 
p wcnf 155 68 14
14 -1 9 
14 -2 10 
14 -3 11 
14 -4 12 
14 -5 13 
14 -6 14 
14 -7 15 
14 -8 16 
14 -17 1 
14 -18 1 
14 -19 1 
14 -20 1 
14 -21 1 
14 -22 1 
14 -23 1 
14 -24 1 
14 -17 25 
14 -17 26 
14 -17 27 
14 -17 28 
14 -17 29 
14 -17 30 
14 -17 31 
14 -18 26 
14 -18 27 
14 -18 28 
14 -18 29 
14 -18 30 
14 -18 31 
14 -18 32 
14 -19 27 
14 -19 28 
14 -19 29 
14 -19 30 
14 -19 31 
14 -19 32 
14 -19 33 
14 -20 28 
14 -20 29 
14 -20 30 
14 -20 31 
14 -20 32 
14 -20 33 
14 -20 34 
14 -21 29 
14 -21 30 
14 -21 31 
14 -21 32 
14 -21 33 
14 -21 34 
14 -21 35 
14 -22 30 
14 -22 31 
14 -22 32 
14 -22 33 
14 -22 34 
14 -22 35 
14 -22 36 
14 -23 31 
14 -23 32 
14 -23 33 
14 -23 34 
14 -23 35 
14 -23 36 
14 -23 37 
14 -24 32 
14 -24 33 
14 -24 34 
14 -24 35 
14 -24 36 
14 -24 37 
14 -24 38 
14 -39 1 
14 -40 1 
14 -41 1 
14 -42 1 
14 -43 1 
14 -44 1 
14 -45 1 
14 -46 1 
14 -39 47 
14 -39 48 
14 -39 49 
14 -39 50 
14 -39 51 
14 -39 52 
14 -39 53 
14 -39 54 
14 -40 48 
14 -40 49 
14 -40 50 
14 -40 51 
14 -40 52 
14 -40 53 
14 -40 54 
14 -40 55 
14 -41 49 
14 -41 50 
14 -41 51 
14 -41 52 
14 -41 53 
14 -41 54 
14 -41 55 
14 -41 56 
14 -42 50 
14 -42 51 
14 -42 52 
14 -42 53 
14 -42 54 
14 -42 55 
14 -42 56 
14 -42 57 
14 -43 51 
14 -43 52 
14 -43 53 
14 -43 54 
14 -43 55 
14 -43 56 
14 -43 57 
14 -43 58 
14 -44 52 
14 -44 53 
14 -44 54 
14 -44 55 
14 -44 56 
14 -44 57 
14 -44 58 
14 -44 59 
14 -45 53 
14 -45 54 
14 -45 55 
14 -45 56 
14 -45 57 
14 -45 58 
14 -45 59 
14 -45 60 
14 -46 54 
14 -46 55 
14 -46 56 
14 -46 57 
14 -46 58 
14 -46 59 
14 -46 60 
14 -46 61 
14 -62 17 
14 -63 17 
14 -62 64 
14 -62 65 
14 -63 65 
14 -63 66 
14 -67 39 62 
14 -67 68 
14 17 18 19 20 21 22 23 24 39 40 41 42 43 44 45 46 
14 17 18 19 20 21 22 23 24 39 40 41 42 43 44 45 46 62 63 
7 67 
